
# 1000 iterations
[ 27  29  30  26  24  21  28  25  16  19  38  40 136 132 123 129 127 134
 137 141 148 158 155 151  39  42  44 133 124 112 117 119  75  76  81  82
  99 105  45  48  50  52  54  53  51  46  90  94  87 103  84  71  73  55
  56  59  64  61  62  60  57  58  63  67  68  69  66  65 111 113 130 146
 150   2 128 115 120  34  32  20 135 139 147 152 156 125 157 142  15  14
  11  10   9   8   1 159 153   3   4 126  41  49  47  89  96 100  86 107
  98  85 106 101  93  91  92  95  88  83  97 102  77  74 131 122 121 110
 109 108 104  70  72  80  78  79 118 116 114  43  33  35  37  36 138 140
  31  23 143 144  13   7 145 149 154   5   6  12  17  22  18]
127301

# 2000 iterations
[ 16  17  22  30  29  27  26  24  25  23  31 140 145   7 144 143  13  37
  36  38  40 136 132  42  39 138  35  33  43 114 116 118  93  46  51  50
  52  54  53  61  62  60  55  56  57  58  59  63  64  73  71  67  69  66
  65  68  74  77  76  75  84  99  98  79  78  70  72  80  83  81  82  85
  86  95  88  87  97 102 103 104 100 101 105 107 106  96  89  90  94  92
  91  49  47  48  45 119 110 108 109 111 113 112 117 121 122 131 127 129
 125 124 130 123  44  41 120 115 128 126 154 157 156   2   3   4   5 153
   6   8   1 159 158 155 151 152 150 147 146   9 141  15  14  11  10 148
  12 149 142 139 135 133 134 137  34  32  20  28  21  19  18]
82217

# 3000 iterations
[ 16  17  22  24  25  21  20  28  26  27  29  30  32  34 137 134 133 135
 139 141  15  14 142 149 148  10  12  11   9 146 147 150 152 151 155   8
   6 153   5   4 158 154 157 156   2   3   1 159 126 125 124 128 129 127
 131 130 115 112 113 111 110 109 108 117 121 122 123  44 114 116 118  93
  92  91  94  90  95  96  89  88  87  97 102 103 104 106 107 105 101 100
  99  98  86  85  84  82  81  83  79  78  80  77  74  76  75  70  72  68
  66  65  69  73  71  67  64  63  60  59  58  57  56  55  62  61  53  54
  52  51  50  49  47  48  46  45 119 120  41 132 136  40  42  43  39  38
 138  35  33  36  37 140 145 143   7 144  13  31  23  19  18]
65092

# 4000 iterations
[  7 144 145 140  37  36  33  35 138  38  39  40  42  43 136 132 114 116
 118  93  92  91  94  95  96  88  89  90  87  97 102 103 104 106 107 105
 101 100  99  98  86  85  84  83  82  81  79  78  80  77  76  75  74  73
  72  68  67  70  71  69  66  65  64  63  62  61  60  59  58  57  56  55
  53  54  52  51  50  49  47  48  46  45 119 120 115 112 113 111 110 109
 108 117 121 122 123  44  41 130 131 127 128 129 124 125 126 159   1   3
   2 156 157 158   4   5 154 155 153   6 152   8 151 150 148  10  12  11
   9 146 147 149  15  14  16  17  22  24  25  21  20  27  26  28  29  30
  32  34 135 133 134 137 139 141 142 143  13  23  19  31  18]
57996

# 5000 iterations
[ 16  17  24  25  21  20  27  26  28  29  30  32  34 135 133 134 137 139
 141 142  14  15  12  11 146 149 147   9  10   8 148 150 151   7 152 154
 155 153   6   5   4 158 157 156   2   3   1 159 126 125 124 129 128 127
 131 130 114 116 118 117 120 119  45  46  48  47  49  50  51  52  54  53
  55  56  57  58  59  60  61  62  63  64  65  66  67  68  70  71  72  69
  73  74  75  76  77  78  79  80  81  82  83  84  85  86 100 101 103 104
 106 107 105 102  99  98  97  87  88  89  94  95  96  90  91  92  93 108
 109 110 111 113 112 115 121 122 123  44  43  40  39  41  42 132 136  38
  36  37  35  33 138 140 145 143 144  13  22  23  19  31  18]
52811

# 6000 iterations
[ 13 143 144 145 140 138  33  35  37  36  38 136 132  42  41  39  40  43
  44 123 122 121 115 113 112 111 110 109 108  93  92  91  90  89  94  95
  96  88  87  97  98  99 102 107 106 105 104 103 101 100  86  85  84  83
  82  81  80  79  78  77  76  75  74  73  72  71  70  69  68  67  66  65
  64  63  62  61  60  59  58  57  56  55  54  53  52  51  50  49  48  47
  46  45 119 120 117 118 116 114 130 131 128 129 124 127 125 126 159   1
   3   2 158 157 156   4   5 153   6 152   7 151 154 155 150 148   8  10
   9 147 149 146  11  12  15  14  16  17 142 141 139 137 134 133 135  34
  32  30  29  28  26  27  24  25  21  20  22  23  31  19  18]
49303

# 7000 iterations
[ 20  21  24  25  27  26  28  29  30  32  33  34  35  37  36  38 136 132
  42  41  39  40  43  44 123 122 121 120 119  45  46  47  48  49  50  51
  52  53  54  55  56  57  58  59  60  61  62  63  64  65  66  67  68  69
  70  71  72  73  74  75  76  77  78  79  80  81  82  83  84  85  86 100
 101 103 104 106 107 105 102  99  98  97  87  88  96  95  94  89  90  91
  92  93 108 109 110 111 112 113 115 117 118 116 114 130 131 128 129 124
 127 125 126 159   1   3   2 158 157 156   4   5 153   6 152   7 151 155
 154 150 148   8  10   9 147 149 146  11  12  13 143 144 145 140 138 135
 133 134 137 139 141 142  17  15  14  16  22  23  19  31  18]
47775

# 8000 iterations
[ 20  21  24  25  27  26  28  29  30  32  33  34  35  37  36  38 136 137
 139 141 145 144 143  13  12  11  10 147 149 146   9   8 148 150 155 154
 151   7 152   6 153   5   4 156 157 158   2   3   1 159 126 125 127 131
 128 129 124 130 114 115 117 118 116 113 112 111 110 109 108  93  92  91
  90  89  94  95  96  88  87 102 103 104 106 107 105 101 100  99  98  97
  86  85  84  83  82  81  80  79  78  77  76  75  74  73  72  71  70  69
  68  67  66  65  64  63  62  61  60  59  58  57  56  55  54  53  52  51
  50  49  48  47  46  45 119 120 121 122 123  44  43  40  39  41  42 132
 134 133 135 138 140 142  14  15  16  17  22  23  19  31  18]
46205

# 9000 iterations
[ 20  21  24  25  27  26  28  29  30  32  33  34  35  37  36  38 136 135
 133 134 132  42  41  39  40  43  44 123 122 121 120 119  45  46  47  48
  49  50  51  52  53  54  55  56  57  58  59  60  61  62  63  64  65  66
  67  68  69  70  71  72  73  74  75  76  77  78  79  80  81  82  83  84
  85  86  97  98  99 100 101 107 106 105 104 103 102  87  88  96  95  94
  89  90  91  92  93 108 109 110 111 112 113 116 118 117 115 114 130 124
 129 128 131 127 125 126 159   1   3   2 158 157 156   4   5   6 153 152
   7 151 154 155 150 148 147 149 146   9   8  10  11  12  13 143 144 145
 141 139 137 138 140 142  14  15  16  17  22  23  19  31  18]
45270

# 10000 iterations
[ 23  22  17  16  15  14 142 140 138 137 139 141 145 144 143  13  12  11
  10   9   8 146 149 147 148 150 155 154 151   7 152 153   6   5   4 156
 157 158   2   3   1 159 126 125 127 131 128 129 124 130 114 115 116 117
 118 113 112 111 110 109 108  93  92  91  90  89  94  88  87  96  95 107
 106 105 104 103 102 101 100  99  98  97  86  85  84  83  82  81  80  79
  78  77  76  75  74  73  72  71  70  69  68  67  66  65  64  63  62  61
  60  59  58  57  56  55  54  53  52  51  50  49  48  47  46  45 119 120
 121 122 123  44  43  40  39  41  42 132 134 133 136 135  38  36  37  35
  34  33  32  30  29  28  27  26  25  24  21  20  19  31  18]
43994
